SDVRP instances/custom_instances/p01_21_splitx10_0.vrp
NAME:p01_21_splitx10_
BEST_KNOWN: 0
COMMENT: 0
DIMENSION: 231
CAPACITY: 1600
EDGE_WEIGHT_FORMAT: FUNCTION
EDGE_WEIGHT_TYPE: EXACT_2D
NODE_COORD_SECTION
1 0.00000 0.00000
2 -32 -31
3 -32 -31
4 -32 -31
5 -6 -48
6 -6 -48
7 -6 -48
8 -6 -48
9 -6 -48
10 -46 -41
11 -46 -41
12 -46 -41
13 -46 -41
14 -46 -41
15 -46 -41
16 -46 -41
17 -46 -41
18 35 23
19 35 23
20 35 23
21 35 23
22 35 23
23 33 47
24 33 47
25 33 47
26 -9 17
27 -9 17
28 -9 17
29 -9 17
30 -9 17
31 -9 17
32 -17 9
33 -17 9
34 -17 9
35 -17 9
36 -17 9
37 -17 9
38 -17 9
39 -17 9
40 -37 5
41 -37 5
42 -37 5
43 27 35
44 27 35
45 27 35
46 27 35
47 27 35
48 27 35
49 49 49
50 49 49
51 49 49
52 49 49
53 49 49
54 -39 39
55 -39 39
56 -39 39
57 -39 39
58 -39 39
59 50 13
60 50 13
61 50 13
62 -33 -14
63 -33 -14
64 -33 -14
65 -33 -14
66 -14 -4
67 -14 -4
68 -14 -4
69 -15 11
70 -15 11
71 -15 11
72 -15 11
73 29 28
74 29 28
75 29 28
76 -16 24
77 -16 24
78 44 -47
79 44 -47
80 44 -47
81 -13 -39
82 -13 -39
83 41 -47
84 41 -47
85 41 -47
86 12 3
87 12 3
88 12 3
89 12 3
90 -5 -7
91 -5 -7
92 -5 -7
93 -5 -7
94 -5 -7
95 -5 -7
96 6 -12
97 6 -12
98 6 -12
99 6 -12
100 4 -38
101 4 -38
102 4 -38
103 4 -38
104 4 -38
105 4 -38
106 -40 -43
107 -40 -43
108 -40 -43
109 -40 -43
110 50 -32
111 50 -32
112 50 -32
113 50 -32
114 -29 36
115 -29 36
116 -29 36
117 -29 36
118 -29 36
119 -29 36
120 -31 -46
121 -31 -46
122 32 -22
123 32 -22
124 32 -22
125 32 -22
126 31 -50
127 31 -50
128 31 -50
129 6 29
130 6 29
131 6 29
132 -8 -3
133 -8 -3
134 -8 -3
135 -8 -3
136 -8 -3
137 -8 -3
138 -3 -30
139 -3 -30
140 -3 -30
141 -3 -30
142 -3 -30
143 34 15
144 34 15
145 34 15
146 34 15
147 12 -33
148 12 -33
149 12 -33
150 12 -33
151 12 -33
152 12 -33
153 12 -33
154 37 -1
155 37 -1
156 37 -1
157 37 -1
158 37 -1
159 37 -1
160 -7 32
161 -7 32
162 -7 32
163 -27 -27
164 -27 -27
165 -27 -27
166 -27 -27
167 -27 -27
168 -27 -27
169 21 8
170 21 8
171 21 8
172 21 8
173 21 8
174 -47 2
175 -47 2
176 -47 2
177 -47 2
178 -47 2
179 -12 21
180 -12 21
181 -12 21
182 -12 21
183 -12 21
184 -12 21
185 32 -44
186 32 -44
187 32 -44
188 32 -44
189 32 -44
190 13 33
191 13 33
192 13 33
193 13 33
194 13 33
195 9 -43
196 9 -43
197 9 -43
198 9 -43
199 9 -43
200 9 -43
201 9 -43
202 17 -2
203 17 -2
204 17 -2
205 17 -2
206 17 -2
207 -23 -15
208 -23 -15
209 -23 -15
210 -23 -15
211 -23 -15
212 -23 -15
213 -3 -18
214 8 -8
215 8 -8
216 8 -8
217 8 -8
218 8 -8
219 8 -8
220 8 -8
221 8 -8
222 -36 -23
223 -36 -23
224 -36 -23
225 -36 -23
226 -36 -23
227 -36 -23
228 -36 -23
229 8 -49
230 8 -49
231 8 -49
DEMAND_SECTION
1 0
2 320
3 16
4 14
5 320
6 16
7 16
8 16
9 2
10 320
11 160
12 80
13 16
14 16
15 16
16 16
17 6
18 160
19 16
20 16
21 16
22 12
23 320
24 320
25 10
26 320
27 16
28 16
29 16
30 16
31 6
32 320
33 320
34 80
35 16
36 16
37 16
38 16
39 6
40 320
41 16
42 4
43 160
44 16
45 16
46 16
47 16
48 6
49 160
50 16
51 16
52 16
53 12
54 160
55 80
56 16
57 16
58 8
59 320
60 16
61 4
62 320
63 160
64 80
65 10
66 320
67 320
68 10
69 320
70 16
71 16
72 8
73 320
74 320
75 160
76 320
77 10
78 320
79 160
80 80
81 320
82 80
83 320
84 80
85 10
86 320
87 320
88 16
89 4
90 320
91 320
92 16
93 16
94 16
95 12
96 320
97 160
98 80
99 10
100 160
101 80
102 16
103 16
104 16
105 12
106 160
107 80
108 16
109 4
110 320
111 80
112 16
113 4
114 320
115 320
116 16
117 16
118 16
119 12
120 320
121 80
122 320
123 320
124 16
125 4
126 320
127 320
128 10
129 320
130 80
131 10
132 320
133 80
134 16
135 16
136 16
137 2
138 160
139 16
140 16
141 16
142 12
143 320
144 16
145 16
146 8
147 320
148 160
149 16
150 16
151 16
152 16
153 6
154 320
155 160
156 16
157 16
158 16
159 12
160 320
161 16
162 14
163 320
164 320
165 16
166 16
167 16
168 2
169 320
170 320
171 80
172 16
173 14
174 160
175 16
176 16
177 16
178 12
179 160
180 80
181 16
182 16
183 16
184 12
185 320
186 160
187 16
188 16
189 8
190 320
191 320
192 80
193 16
194 14
195 320
196 160
197 80
198 16
199 16
200 16
201 2
202 160
203 16
204 16
205 16
206 2
207 320
208 320
209 80
210 16
211 16
212 8
213 320
214 320
215 160
216 80
217 16
218 16
219 16
220 16
221 6
222 320
223 320
224 80
225 16
226 16
227 16
228 12
229 320
230 16
231 4
DEPOT_SECTION
1
-1
EOF