SDVRP instances/custom_instances/p01_21_splitx10_0.sol
230 -27 29 28 30 26 25 70 71 69 68 31 33 34 38 32 36 37 35 -39 40 41 175 173 176 174 177 2 1 3 163 166 162 167 165 164 -47 45 43 42 46 44 23 22 24 51 50 52 49 48 72 74 -56 53 55 57 54 113 115 117 114 118 116 75 76 182 178 180 179 -62 63 61 64 225 224 221 222 211 207 -73 18 19 21 17 20 58 59 60 142 143 144 145 171 168 172 -80 81 8 7 5 4 6 137 139 140 141 138 95 97 96 98 -87 88 86 85 201 202 205 204 203 215 218 216 219 220 217 213 214 -89 90 93 94 92 91 -112 109 111 110 78 77 79 83 82 84 185 -119 120 107 108 105 106 13 9 16 12 11 14 15 10 223 226 227 -121 123 124 122 155 156 157 158 153 154 169 170 -133 136 132 135 134 131 67 66 65 206 209 208 210 -152 151 146 150 147 149 148 126 127 125 186 188 184 187 -181 183 161 160 159 129 128 130 193 190 189 191 192 -194 196 198 195 200 197 199 230 228 229 100 104 102 103 101 99 212 0 





OBJ=
1554.521
BEST_KNOWN=
0.000